c 41_3_checker_6cl.cnf
c
c field = 41
c formula set type = 3_checker_6cl
c
p cnf 6 30
74 
76 
78 
-73 
-70 
-82 
75 
77 
79 
-72 
-71 
-83 
74 
76 
78 
-83 
-72 
-84 
75 
77 
79 
-82 
-73 
-85 
76 
78 
82 
-75 
-72 
-84 
77 
79 
83 
-74 
-73 
-85 
76 
78 
82 
-85 
-74 
-86 
77 
79 
83 
-84 
-75 
-87 
78 
82 
84 
-77 
-74 
-86 
79 
83 
85 
-76 
-75 
-87 
78 
82 
84 
-87 
-76 
-88 
79 
83 
85 
-86 
-77 
-89 
82 
84 
86 
-79 
-76 
-88 
83 
85 
87 
-78 
-77 
-89 
50 
110 
140 
-171 
-20 
-200 
51 
111 
141 
-170 
-21 
-201 
110 
140 
170 
-51 
-20 
-200 
111 
141 
171 
-50 
-21 
-201 
110 
140 
170 
-201 
-50 
-230 
111 
141 
171 
-200 
-51 
-231 
48 
112 
144 
-177 
-16 
-208 
49 
113 
145 
-176 
-17 
-209 
112 
144 
176 
-49 
-16 
-208 
113 
145 
177 
-48 
-17 
-209 
52 
108 
136 
-165 
-24 
-192 
53 
109 
137 
-164 
-25 
-193 
108 
136 
164 
-53 
-24 
-192 
109 
137 
165 
-52 
-25 
-193 
108 
136 
164 
-193 
-52 
-220 
109 
137 
165 
-192 
-53 
-221 
